n = 1000;
m = 20;
p = [67,11,77,88,54,69,90,88,51,20,19,11,2,53,49,65,100,18,27,41];
v = [0.032,0.093,0.19,0.207,0.253,0.305,0.34,0.417,0.494,0.515,0.59,0.604,0.639,0.717,0.736,0.74,0.746,0.78,0.788,0.972];
ce = [3.434,16.657,15.013,1.129,0.249,6.023,16.43,3.622,18.803,9.721,8.759,6.367,5.798,12.315,7.317,14.414,15.474,3.489,8.64,8.036];
c = [|0,2.415,1.272,2.575,0.722,0.19,2.862,2.663,1.356,4.21,4.03,0.405,0.877,3.132,0.849,3.168,0.419,4.907,0.089,4.968|
3.545,0,3.193,2.145,3.522,1.925,0.738,4.17,3.614,1.384,4.293,4.55,0.525,4.004,4.256,0.718,4.949,3.278,2.4,4.855|
3.599,2.544,0,2.518,3.265,3.528,2.293,0.897,3.076,4.116,1.555,0.829,3.6,3.895,0.984,3.829,3.526,3.785,3.29,1.056|
0.566,2.623,1.772,0,1.041,1.936,4.291,4.607,4.334,4.37,4.449,2.487,2.755,4.373,4.949,3.849,4.804,1.198,3.211,4.951|
0.883,0.744,0.273,3.289,0,3.239,4.586,3.102,3.525,3.869,2.512,4.995,2.898,4.772,0.211,2.507,2.525,2.893,1.261,4.205|
4.038,0.331,2.267,3.285,0.266,0,4.103,2.064,0.84,3.172,4.762,2.723,1.518,3.14,1.601,4.283,0.111,2.493,2.81,4.27|
3.684,0.079,4.889,1.885,3.093,4.967,0,3.47,3.265,0.777,0.931,4.828,1.818,3.002,4.442,2.745,2.397,2.244,4.633,2.022|
1.308,4.58,1.856,4.338,3.231,3.909,0.358,0,4.232,4.805,4.974,1.265,3.399,1.814,2.517,1.472,1.113,0.344,0.135,0.514|
2.051,1.708,0.451,0.883,4.898,1.836,4.019,1.404,0,2.941,1.543,3.336,4.798,2.943,3.97,1.858,2.355,2.314,3.969,3.161|
2.819,4.184,0.118,3.046,0.554,0.241,2.279,4.092,4.552,0,2.46,3.712,2.641,3.783,1.137,0.945,3.449,4.591,1.647,2.018|
4.452,3.456,3.119,4.471,2.091,2.329,1.471,2.952,0.626,2.251,0,4.707,4.844,0.966,3.391,0.171,0.677,2.506,1.253,1.946|
0.153,3.748,1.762,0.148,0.857,3.493,0.048,0.36,4.534,4.684,4.294,0,0.612,2.416,2.598,4.743,0.249,2.306,3.33,2.473|
2.901,3.555,0.761,2.78,3.977,3.843,2.078,1.792,3.596,2.576,4.58,0.711,0,4.615,4.456,1.602,4.576,2.798,4.375,3.973|
2.973,4.168,3.789,1.482,0.829,3.875,3.959,3.005,3.739,0.077,0.262,1.217,2.529,0,0.426,4.707,2.101,1.572,3.098,4.836|
4.369,3.221,1.219,2.814,3.378,3.686,0.095,4.888,2.082,0.6,3.491,1.131,1.211,4.749,0,4.981,4.84,4.823,0.255,2.08|
3.118,0.713,3.112,2.214,3.964,4.072,3.394,1.112,0.521,3.185,1.312,2.722,4.239,0.185,2.418,0,2.494,3.534,3.253,1.802|
2.673,4.366,3.685,0.28,4.432,3.739,0.628,2.108,2.053,0.434,0.418,4.289,4.587,4.941,3.506,0.791,0,2.546,0.11,4.141|
0.995,3.123,2.426,3.946,2.503,4.721,0.951,3.387,4.319,0.026,4.975,1.497,0.039,4.561,2.687,3.277,3.628,0,0.618,4.438|
1.859,4.161,0.956,0.791,1.237,1.161,1.471,1.445,2.216,0.409,1.203,2.002,1.91,1.641,4.513,1.587,1.061,1.229,0,3.431|
2.537,0.719,0.933,1.077,3.681,4.205,4.801,3.591,2.216,1.813,0.307,2.581,4.108,0.375,0.262,0.877,0.777,4.527,2.857,0|];
ct = 5000.54;
maxM = 2000;
