% Instancia 5: Gran escala (estrés)
% 200 personas, 10 opiniones, varias vacías
% Distribución variada: [30, 25, 0, 20, 0, 15, 0, 40, 35, 35]
% Propósito: probar escalabilidad del modelo con n grande
%            y muchas opiniones posibles con vacías intercaladas

n = 200;
m = 10;
p = [30, 25, 0, 20, 0, 15, 0, 40, 35, 35];
v = [0.0, 0.11, 0.22, 0.33, 0.44, 0.56, 0.67, 0.78, 0.89, 1.0];
ce = [5.0, 8.0, 12.0, 6.0, 10.0, 8.0, 12.0, 5.0, 7.0, 6.0];
c = [|0, 1, 2, 3, 4, 5, 6, 7, 8, 9|
     1, 0, 1, 2, 3, 4, 5, 6, 7, 8|
     2, 1, 0, 1, 2, 3, 4, 5, 6, 7|
     3, 2, 1, 0, 1, 2, 3, 4, 5, 6|
     4, 3, 2, 1, 0, 1, 2, 3, 4, 5|
     5, 4, 3, 2, 1, 0, 1, 2, 3, 4|
     6, 5, 4, 3, 2, 1, 0, 1, 2, 3|
     7, 6, 5, 4, 3, 2, 1, 0, 1, 2|
     8, 7, 6, 5, 4, 3, 2, 1, 0, 1|
     9, 8, 7, 6, 5, 4, 3, 2, 1, 0|];
ct = 500.0;
maxM = 300;
